p cnf 7230 16
-341 -2968 -3376 0
-339 -2970 -3374 0
341 -3377 0
339 -3375 0
3376 3377 0
3374 3375 0
3372 3373 0
2780 -3373 0
-2780 -3372 0
3370 3371 0
2778 -3371 0
-2778 -3370 0
2968 -3377 0
2970 -3375 0
3038 -3379 0
343 -3379 0
